#################################################################
# General
#################################################################

iomode 3

ndtset 12
# jdtset 1 2 

#################################################################
# structure
#################################################################

# Unit cell. 
acell 3*5.43 Angstrom
rprim 
0.5 0.5 0.0
0.0 0.5 0.5
0.5 0.0 0.5

# Atom types. 
ntypat 1
znucl 14
pp_dirpath "./abinit_pseudos"
pseudos "Si.psp8"

# Atom locations. 
natom 2
typat 1 1
xred
0.00 0.00 0.00
0.25 0.25 0.25

# k-points, band, ecut.  
kptopt 2
ngkpt 2 2 2
nshiftk 1
shiftk
0.0 0.0 0.0
nsym 1
ecut 12.0

#################################################################
# scf
#################################################################

# k, band, cutoff.

# Stopping. 
toldfe1 1.0d-12

# Printing. 
prtwf1 1
prtwf_full1 1

#################################################################
# nscf
#################################################################

# Previous
iscf2 -2
getden2 -1

# kpoints, band, ecut. 
nband2 8

# Stopping. 
tolwfr2 1.0d-12

# Printing. 
prtwant2 2      # Call to Wannier90
istwfk2 8*1
w90prtunk2 1    #Prints UNK files (for plotting the Wannier functions)
enunit2 1       # Print energies in eV. 
prtwf2 1
prtwf_full2 1

#################################################################
# elband. Done from nscf calculation above. Could do it seperate if needed. 
#################################################################

#################################################################
# elband unfolding. 
#################################################################

#################################################################
# dfpt and elph
#################################################################

# Previous. 
getwfk3 2
getwfk4 2
getwfk5 2
getwfk6 2
getwfk7 2
getwfk8 2
getwfk9 2
getwfk10 2

# kpt, band, ecut. 
nqpt3 1
nqpt4 1
nqpt5 1
nqpt6 1
nqpt7 1
nqpt8 1
nqpt9 1
nqpt10 1
qpt3 0.00000000E+00  0.00000000E+00  0.00000000E+00
qpt4 5.00000000E-01  0.00000000E+00  0.00000000E+00
qpt5 0.00000000E+00  5.00000000E-01  0.00000000E+00
qpt6 5.00000000E-01  5.00000000E-01  0.00000000E+00
qpt7 0.00000000E+00  0.00000000E+00  5.00000000E-01
qpt8 5.00000000E-01  0.00000000E+00  5.00000000E-01
qpt9 0.00000000E+00  5.00000000E-01  5.00000000E-01
qpt10 5.00000000E-01  5.00000000E-01  5.00000000E-01

# Other calc parameters. 
rfphon3 1
rfphon4 1
rfphon5 1
rfphon6 1
rfphon7 1
rfphon8 1
rfphon9 1
rfphon10 1

# Stopping. 
tolvrs3 1.0d-8
tolvrs4 1.0d-8
tolvrs5 1.0d-8
tolvrs6 1.0d-8
tolvrs7 1.0d-8
tolvrs8 1.0d-8
tolvrs9 1.0d-8
tolvrs10 1.0d-8

# Printing. 
prtgkk3 1
prtgkk4 1
prtgkk5 1
prtgkk6 1
prtgkk7 1
prtgkk8 1
prtgkk9 1
prtgkk10 1

#################################################################
# phband. Done using mrgddb and anaddb. 
#################################################################

#################################################################
# gw. Dataset 11
#################################################################

# Screening. 
optdriver11  3        
getwfk11     2       
nband11      60       
ecuteps11    3.6 

# Sigma. 
optdriver12  4        
getwfk12     2       
getscr12     11       
nband12      80       
ecutsigx12    8.0    
nkptgw12      1     
kptgw12              
0.000    0.000    0.000
bdgw12       4  5    

#################################################################
# gwr
#################################################################

#################################################################
# gwl
#################################################################

#################################################################
# bse
#################################################################

#################################################################
# wannier
#################################################################

#################################################################
# lattice wannier
#################################################################

#################################################################
# multiabinit
#################################################################

#################################################################
# parallelization
#################################################################