&CONTROL
outdir='./tmp'
prefix='struct'
pseudo_dir='./ONCVPSP/sg15'
calculation='bands'
tprnfor=.true. 
/

&SYSTEM
ibrav=0
ntyp=1
nat=2
nbnd=14
ecutwfc=20.0
!noncolin=.true.
!lspinorb=.true. 
/

&ELECTRONS
/

&CELL
/

&IONS
/

CELL_PARAMETERS angstrom
   2.7150000000    2.7150000000    0.0000000000
   0.0000000000    2.7150000000    2.7150000000
   2.7150000000    0.0000000000    2.7150000000


ATOMIC_SPECIES
Si 28.085 Si_ONCV_PBE_sr.upf


ATOMIC_POSITIONS angstrom 
Si    0.0000000000    0.0000000000    0.0000000000
Si    1.3575000000    1.3575000000    1.3575000000


K_POINTS crystal
100
   0.5000000000    0.5000000000    0.5000000000 1.0
   0.4705882353    0.4705882353    0.4705882353 1.0
   0.4411764706    0.4411764706    0.4411764706 1.0
   0.4117647059    0.4117647059    0.4117647059 1.0
   0.3823529412    0.3823529412    0.3823529412 1.0
   0.3529411765    0.3529411765    0.3529411765 1.0
   0.3235294118    0.3235294118    0.3235294118 1.0
   0.2941176471    0.2941176471    0.2941176471 1.0
   0.2647058824    0.2647058824    0.2647058824 1.0
   0.2352941176    0.2352941176    0.2352941176 1.0
   0.2058823529    0.2058823529    0.2058823529 1.0
   0.1764705882    0.1764705882    0.1764705882 1.0
   0.1470588235    0.1470588235    0.1470588235 1.0
   0.1176470588    0.1176470588    0.1176470588 1.0
   0.0882352941    0.0882352941    0.0882352941 1.0
   0.0588235294    0.0588235294    0.0588235294 1.0
   0.0294117647    0.0294117647    0.0294117647 1.0
   0.0000000000    0.0000000000    0.0000000000 1.0
   0.0250000000    0.0000000000    0.0250000000 1.0
   0.0500000000    0.0000000000    0.0500000000 1.0
   0.0750000000    0.0000000000    0.0750000000 1.0
   0.1000000000    0.0000000000    0.1000000000 1.0
   0.1250000000    0.0000000000    0.1250000000 1.0
   0.1500000000    0.0000000000    0.1500000000 1.0
   0.1750000000    0.0000000000    0.1750000000 1.0
   0.2000000000    0.0000000000    0.2000000000 1.0
   0.2250000000    0.0000000000    0.2250000000 1.0
   0.2500000000    0.0000000000    0.2500000000 1.0
   0.2750000000    0.0000000000    0.2750000000 1.0
   0.3000000000    0.0000000000    0.3000000000 1.0
   0.3250000000    0.0000000000    0.3250000000 1.0
   0.3500000000    0.0000000000    0.3500000000 1.0
   0.3750000000    0.0000000000    0.3750000000 1.0
   0.4000000000    0.0000000000    0.4000000000 1.0
   0.4250000000    0.0000000000    0.4250000000 1.0
   0.4500000000    0.0000000000    0.4500000000 1.0
   0.4750000000    0.0000000000    0.4750000000 1.0
   0.5000000000    0.0000000000    0.5000000000 1.0
   0.5000000000    0.0250000000    0.5250000000 1.0
   0.5000000000    0.0500000000    0.5500000000 1.0
   0.5000000000    0.0750000000    0.5750000000 1.0
   0.5000000000    0.1000000000    0.6000000000 1.0
   0.5000000000    0.1250000000    0.6250000000 1.0
   0.5000000000    0.1500000000    0.6500000000 1.0
   0.5000000000    0.1750000000    0.6750000000 1.0
   0.5000000000    0.2000000000    0.7000000000 1.0
   0.5000000000    0.2250000000    0.7250000000 1.0
   0.5000000000    0.2500000000    0.7500000000 1.0
   0.5000000000    0.2666666667    0.7333333333 1.0
   0.5000000000    0.2833333333    0.7166666667 1.0
   0.5000000000    0.3000000000    0.7000000000 1.0
   0.5000000000    0.3166666667    0.6833333333 1.0
   0.5000000000    0.3333333333    0.6666666667 1.0
   0.5000000000    0.3500000000    0.6500000000 1.0
   0.5000000000    0.3666666667    0.6333333333 1.0
   0.5000000000    0.3833333333    0.6166666667 1.0
   0.5000000000    0.4000000000    0.6000000000 1.0
   0.5000000000    0.4166666667    0.5833333333 1.0
   0.5000000000    0.4333333333    0.5666666667 1.0
   0.5000000000    0.4500000000    0.5500000000 1.0
   0.5000000000    0.4666666667    0.5333333333 1.0
   0.5000000000    0.4833333333    0.5166666667 1.0
   0.5000000000    0.5000000000    0.5000000000 1.0
   0.4903846154    0.4903846154    0.5192307692 1.0
   0.4807692308    0.4807692308    0.5384615385 1.0
   0.4711538462    0.4711538462    0.5576923077 1.0
   0.4615384615    0.4615384615    0.5769230769 1.0
   0.4519230769    0.4519230769    0.5961538462 1.0
   0.4423076923    0.4423076923    0.6153846154 1.0
   0.4326923077    0.4326923077    0.6346153846 1.0
   0.4230769231    0.4230769231    0.6538461538 1.0
   0.4134615385    0.4134615385    0.6730769231 1.0
   0.4038461538    0.4038461538    0.6923076923 1.0
   0.3942307692    0.3942307692    0.7115384615 1.0
   0.3846153846    0.3846153846    0.7307692308 1.0
   0.3750000000    0.3750000000    0.7500000000 1.0
   0.3593750000    0.3593750000    0.7187500000 1.0
   0.3437500000    0.3437500000    0.6875000000 1.0
   0.3281250000    0.3281250000    0.6562500000 1.0
   0.3125000000    0.3125000000    0.6250000000 1.0
   0.2968750000    0.2968750000    0.5937500000 1.0
   0.2812500000    0.2812500000    0.5625000000 1.0
   0.2656250000    0.2656250000    0.5312500000 1.0
   0.2500000000    0.2500000000    0.5000000000 1.0
   0.2343750000    0.2343750000    0.4687500000 1.0
   0.2187500000    0.2187500000    0.4375000000 1.0
   0.2031250000    0.2031250000    0.4062500000 1.0
   0.1875000000    0.1875000000    0.3750000000 1.0
   0.1718750000    0.1718750000    0.3437500000 1.0
   0.1562500000    0.1562500000    0.3125000000 1.0
   0.1406250000    0.1406250000    0.2812500000 1.0
   0.1250000000    0.1250000000    0.2500000000 1.0
   0.1093750000    0.1093750000    0.2187500000 1.0
   0.0937500000    0.0937500000    0.1875000000 1.0
   0.0781250000    0.0781250000    0.1562500000 1.0
   0.0625000000    0.0625000000    0.1250000000 1.0
   0.0468750000    0.0468750000    0.0937500000 1.0
   0.0312500000    0.0312500000    0.0625000000 1.0
   0.0156250000    0.0156250000    0.0312500000 1.0
   0.0000000000    0.0000000000    0.0000000000 1.0

