&DOS
outdir='./tmp'
prefix='struct'
fildos='struct_dos.dat'
/
