&PROJWFC
outdir='./tmp'
prefix='struct'
kresolveddos=.true.
filpdos='struct_kpdos.dat'
/
