&PROJWFC
outdir='./tmp'
prefix='struct'
filpdos='struct_pdos.dat'
/
