&CONTROL
outdir='./tmp'
prefix='struct'
pseudo_dir='./ONCVPSP/sg15'
calculation='relax'
tprnfor=.true.
/

&SYSTEM
ibrav=0
occupations='from_input'
ntyp=1
nat=2
nbnd=4
ecutwfc=20.0
!noncolin=.true.
!lspinorb=.true. 
/

&ELECTRONS
/

&IONS

&CELL
/

OCCUPATIONS 
   2.0000000000
   2.0000000000
   2.0000000000
   2.0000000000


ATOMIC_SPECIES
Si 28.085 Si_ONCV_PBE_sr.upf


CELL_PARAMETERS angstrom
   2.7150000000    2.7150000000    0.0000000000
   0.0000000000    2.7150000000    2.7150000000
   2.7150000000    0.0000000000    2.7150000000


ATOMIC_POSITIONS angstrom 
Si    0.0000000000    0.0000000000    0.0000000000
Si    1.3575000000    1.3575000000    1.3575000000


K_POINTS automatic
2 2 2 0 0 0

