&CONTROL
outdir='./tmp'
prefix='struct'
pseudo_dir='./ONCVPSP/sg15'
calculation='bands'
tprnfor=.true. 
/

&SYSTEM
ibrav=0
ntyp=1
nat=2
nbnd=14
ecutwfc=20.0
!noncolin=.true.
!lspinorb=.true. 
/

&ELECTRONS
/

&CELL
/

&IONS
/

CELL_PARAMETERS angstrom
   2.7150000000    2.7150000000    0.0000000000
   0.0000000000    2.7150000000    2.7150000000
   2.7150000000    0.0000000000    2.7150000000


ATOMIC_SPECIES
Si 28.085 Si_ONCV_PBE_sr.upf


ATOMIC_POSITIONS angstrom 
Si    0.0000000000    0.0000000000    0.0000000000
Si    1.3575000000    1.3575000000    1.3575000000


K_POINTS crystal
8
   0.0000000000    0.0000000000    0.0010000000    1.0000000000
   0.0000000000    0.0000000000    0.5010000000    1.0000000000
   0.0000000000    0.5000000000    0.0010000000    1.0000000000
   0.0000000000    0.5000000000    0.5010000000    1.0000000000
   0.5000000000    0.0000000000    0.0010000000    1.0000000000
   0.5000000000    0.0000000000    0.5010000000    1.0000000000
   0.5000000000    0.5000000000    0.0010000000    1.0000000000
   0.5000000000    0.5000000000    0.5010000000    1.0000000000

