&CONTROL
outdir='./tmp'
prefix='struct'
pseudo_dir='./ONCVPSP/sg15'
calculation='vc-relax'
tprnfor=.true.
/

&SYSTEM
ibrav=0
occupations='from_input'
ntyp=4
nat=10
nbnd=46
ecutwfc=50.0
!noncolin=.true.
!lspinorb=.true. 
/

&ELECTRONS
/

&IONS

&CELL
/

OCCUPATIONS 
   2.0000000000
   2.0000000000
   2.0000000000
   2.0000000000
   2.0000000000
   2.0000000000
   2.0000000000
   2.0000000000
   2.0000000000
   2.0000000000
   2.0000000000
   2.0000000000
   2.0000000000
   2.0000000000
   2.0000000000
   2.0000000000
   2.0000000000
   2.0000000000
   2.0000000000
   2.0000000000
   2.0000000000
   2.0000000000
   2.0000000000
   2.0000000000
   2.0000000000
   2.0000000000
   2.0000000000
   2.0000000000
   2.0000000000
   2.0000000000
   2.0000000000
   2.0000000000
   2.0000000000
   2.0000000000
   2.0000000000
   2.0000000000
   2.0000000000
   2.0000000000
   2.0000000000
   2.0000000000
   2.0000000000
   2.0000000000
   2.0000000000
   2.0000000000
   2.0000000000
   2.0000000000


ATOMIC_SPECIES
Cl 35.45 Cl_ONCV_PBE_sr.upf
Ag 107.8682 Ag_ONCV_PBE_sr.upf
In 114.818 In_ONCV_PBE_sr.upf
Cs 132.90545196 Cs_ONCV_PBE_sr.upf


CELL_PARAMETERS angstrom
   5.2400000000    5.2400000000    0.0000000000
   0.0000000000    5.2400000000    5.2400000000
   5.2400000000    0.0000000000    5.2400000000


ATOMIC_POSITIONS angstrom 
Cs    2.6200000000    2.6200000000    2.6200000000
Cs    7.8600000000    7.8600000000    7.8600000000
Ag    5.2400000000    5.2400000000    5.2400000000
In    0.0000000000    0.0000000000    0.0000000000
Cl    5.2400000000    2.6200000000    5.2400000000
Cl    2.6200000000    5.2400000000    5.2400000000
Cl    5.2400000000    5.2400000000    2.6200000000
Cl    5.2400000000    7.8600000000    5.2400000000
Cl    7.8600000000    5.2400000000    5.2400000000
Cl    5.2400000000    5.2400000000    7.8600000000


K_POINTS automatic
2 2 2 0 0 0

